33D32945 STP File, STP Format Version 1.0

SECTION Comments
Name "edge_n12_d5_s3"
Problem "Euclidean Steiner Tree Problem"
Remark "Generated with STPGenerator. 5 dimensions."
END

SECTION Graph
Nodes 12
END

SECTION Coordinates
DDDDD 0 0.5613801752 0.5613801752 0.5613801752 0.5613801752 0.5613801752
DDDDD 1 0.2249833128 0.2249833128 0.2249833128 0.2249833128 0.2249833128
DDDDD 2 0.3930917794 0.3930917794 0.3930917794 0.3930917794 0.3930917794
DDDDD 3 0.4439383934 0.4439383934 0.4439383934 0.4439383934 0.4439383934
DDDDD 4 0.2850412509 0.2850412509 0.2850412509 0.2850412509 0.2850412509
DDDDD 5 0.1447810513 0.1447810513 0.1447810513 0.1447810513 0.1447810513
DDDDD 6 0.5635544996 0.5635544996 0.5635544996 0.5635544996 0.5635544996
DDDDD 7 0.8646787037 0.8646787037 0.8646787037 0.8646787037 0.8646787037
DDDDD 8 0.8954018363 0.8954018363 0.8954018363 0.8954018363 0.8954018363
DDDDD 9 0.2308046744 0.2308046744 0.2308046744 0.2308046744 0.2308046744
DDDDD 10 0.0040116059 0.0040116059 0.0040116059 0.0040116059 0.0040116059
DDDDD 11 0.4605808875 0.4605808875 0.4605808875 0.4605808875 0.4605808875
END
